NAME : tsp_468_sol.txt
COMMENT : OR-Tools Guided Local Search
TYPE : TOUR
DIMENSION : 50
COST : 5775
STATUS : ROUTING_SUCCESS
GAP : 0.00% (Reference Solution)
TOUR_SECTION
1
14
41
26
28
22
40
9
16
17
35
13
29
24
15
20
10
8
50
42
45
39
44
12
25
32
33
49
34
27
38
48
2
11
21
5
30
37
18
4
23
7
36
31
3
47
43
19
46
6
-1
